\* Problem: Unknown *\

Maximize
 obj: + xp_0_0 + xp_0_1 + xp_0_2 + xp_1_0 + xp_1_1 + xp_2_0 + xp_2_1
 + xp_3_0 + xp_3_1 + xp_3_2 + xp_4_0 + xp_4_1 + xp_4_2 + xp_4_3 + xp_4_4
 + xp_4_5 + xp_5_0 + xp_6_0 + xp_6_1 + xp_7_0 + xp_8_0 + xp_9_0 + xp_9_1
 + xp_9_2 + xp_9_3 + xp_10_0 + xp_10_1 + xp_11_0 + xp_11_1 + xp_12_0
 + xp_12_1 + xp_12_2 + xp_12_3 + xp_12_4 + xp_12_5 + xp_13_0 + xp_13_1
 + xp_13_2 + xp_14_0 + xp_14_1 + xp_15_0 + xp_15_1 + xp_15_2 + xp_15_3
 + xp_15_4 + xp_16_0 + xp_17_0 + xp_17_1 + xp_18_0 + xp_18_1 + xp_18_2
 + xp_18_3 + xp_18_4 + xp_18_5 + xp_19_0 + xp_19_1 + xp_19_2 + xp_19_3
 + xp_19_4 + xp_19_5 + xp_20_0 + xp_21_0 + xp_21_1 + xp_21_2 + xp_22_0
 + xp_22_1 + xp_23_0 + xp_24_0 + xp_24_1 + xp_24_2 + xp_24_3 + xp_24_4
 + xp_24_5 + xp_24_6 + xp_24_7 + xp_24_8 + xp_24_9 + xp_25_0 + xp_26_0
 + xp_26_1 + xp_26_2 + xp_26_3 + xp_26_4 + xp_27_0 + xp_27_1 + xp_28_0
 + xp_28_1 + xp_28_2 + xp_28_3 + xp_29_0 + xp_30_0 + xp_30_1 + xp_30_2
 + xp_31_0 + xp_32_0 + xp_32_1 + xp_32_2 + xp_32_3 + xp_32_4 + xp_32_5
 + xp_32_6 + xp_32_7 + xp_33_0 + xp_34_0 + xp_34_1 + xp_35_0 + xp_36_0
 + xp_36_1 + xp_37_0 + xp_38_0 + xp_38_1 + xp_38_2 + xp_38_3 + xp_38_4
 + xp_39_0 + xp_40_0 + xp_40_1 + xp_40_2 + xp_40_3 + xp_41_0 + xp_41_1
 + xp_42_0 + xp_42_1 + xp_42_2 + xp_42_3 + xp_43_0 + xp_44_0 + xp_44_1
 + xp_44_2 + xp_44_3 + xp_44_4 + xp_44_5 + xp_45_0 + xp_45_1 + xp_45_2
 + xp_45_3 + xp_45_4 + xp_46_0 + xp_46_1 + xp_46_2 + xp_46_3 + xp_47_0
 + xp_48_0 + xp_48_1 + xp_48_2 + xp_48_3 + xp_49_0 + xp_49_1 + xp_49_2
 + xp_49_3 + xp_50_0 + xp_50_1 + xp_50_2 + xp_50_3 + xp_51_0 + xp_51_1
 + xp_52_0 + xp_52_1 + xp_53_0 + xp_53_1 + xp_53_2 + xp_54_0 + xp_54_1
 + xp_55_0 + xp_55_1 + xp_56_0 + xp_57_0 + xp_57_1 + xp_58_0 + xp_58_1
 + xp_58_2 + xp_58_3 + xp_59_0 + xp_59_1 + xp_59_2 + xp_60_0 + xp_60_1
 + xp_60_2 + xp_60_3 + xp_61_0 + xp_61_1 + xp_62_0 + xp_63_0 + xp_63_1
 + xp_64_0 + xp_65_0 + xp_65_1 + xp_66_0 + xp_67_0 + xp_67_1 + xp_68_0
 + xp_68_1 + xp_68_2 + xp_68_3 + xp_69_0 + xp_70_0 + xp_71_0 + xp_71_1
 + xp_72_0 + xp_73_0 + xp_73_1 + xp_73_2 + xp_73_3 + xp_74_0 + xp_74_1
 + xp_75_0 + xp_75_1 + xp_76_0 + xp_77_0 + xp_77_1 + xp_77_2 + xp_77_3
 + xp_77_4 + xp_78_0 + xp_78_1 + xp_78_2 + xp_78_3 + xp_78_4 + xp_78_5
 + xp_78_6 + xp_78_7 + xp_79_0 + xp_79_1 + xp_79_2 + xp_80_0 + xp_80_1
 + xp_80_2 + xp_80_3 + xp_81_0 + xp_81_1 + xp_81_2 + xp_81_3 + xp_81_4
 + xp_82_0 + xp_82_1 + xp_82_2 + xp_82_3 + xp_83_0 + xp_83_1 + xp_84_0
 + xp_84_1 + xp_85_0 + xp_85_1 + xp_85_2 + xp_85_3 + xp_85_4 + xp_85_5
 + xp_85_6 + xp_85_7 + xp_86_0 + xp_86_1 + xp_87_0 + xp_88_0 + xp_88_1
 + xp_89_0 + xp_89_1 + xp_89_2 + xp_89_3 + xp_90_0 + xp_90_1 + xp_90_2
 + xp_90_3 + xp_91_0 + xp_91_1 + xp_91_2 + xp_92_0 + xp_92_1 + xp_92_2
 + xp_92_3 + xp_93_0 + xp_93_1 + xp_94_0 + xp_94_1 + xp_94_2 + xp_94_3
 + xp_94_4 + xp_94_5 + xp_94_6 + xp_94_7 + xp_95_0 + xp_95_1 + xp_95_2
 + xp_96_0 + xp_96_1 + xp_97_0 + xp_98_0 + xp_98_1 + xp_98_2 + xp_98_3
 + xp_98_4 + xp_99_0 + xp_99_1 + xp_99_2 + xp_100_0 + xp_100_1
 + xp_100_2 + xp_101_0 + xp_101_1 + xp_102_0 + xp_103_0 + xp_104_0
 + xp_104_1 + xp_104_2 + xp_105_0 + xp_105_1 + xp_106_0 + xp_106_1
 + xp_106_2 + xp_107_0 + xp_108_0 + xp_108_1 + xp_108_2 + xp_109_0
 + xp_109_1 + xp_110_0 + xp_111_0 + xp_111_1 + xp_111_2 + xp_111_3
 + xp_111_4 + xp_112_0 + xp_112_1 + xp_112_2 + xp_112_3 + xp_112_4
 + xp_112_5 + xp_113_0 + xp_114_0 + xp_115_0 + xp_115_1 + xp_116_0
 + xp_116_1 + xp_117_0 + xp_117_1 + xp_117_2 + xp_118_0 + xp_119_0
 + xp_119_1 + xp_119_2 + xp_119_3 + xp_119_4 + xp_119_5 + xp_120_0
 + xp_120_1 + xp_120_2 + xp_120_3 + xp_121_0 + xp_122_0 + xp_123_0
 + xp_123_1 + xp_124_0 + xp_124_1 + xp_124_2 + xp_124_3 + xp_125_0
 + xp_125_1 + xp_126_0 + xp_126_1 + xp_126_2 + xp_126_3 + xp_126_4
 + xp_126_5 + xp_126_6 + xp_126_7 + xp_127_0 + xp_127_1 + xp_128_0
 + xp_128_1 + xp_128_2 + xp_128_3 + xp_128_4 + xp_128_5 + xp_129_0
 + xp_129_1 + xp_130_0 + xp_131_0 + xp_131_1 + xp_131_2 + xp_131_3
 + xp_131_4 + xp_131_5

Subject To
 r_1: + xp_128_5 + xp_128_4 + xp_128_3 + xp_128_2 + xp_128_1 + xp_123_1
 + xp_122_0 + xp_121_0 + xp_108_2 + xp_107_0 + xp_93_1 + xp_85_7
 + xp_85_6 + xp_85_5 + xp_78_7 + xp_78_6 + xp_78_5 + xp_78_3 + xp_73_3
 + xp_73_2 + xp_73_1 + xp_67_1 + xp_57_1 + xp_52_1 + xp_46_2 + xp_46_1
 + xp_44_4 + xp_44_3 + xp_44_2 + xp_40_3 + xp_40_2 + xp_40_1 + xp_28_3
 + xp_28_2 + xp_25_0 + xp_22_1 + xp_19_5 + xp_19_4 + xp_18_5 + xp_18_4
 + xp_18_3 + xp_18_2 + xp_18_1 + xp_16_0 + xp_13_2 + xp_13_1 + xp_6_1
 + xp_4_5 + xp_4_4 + xp_4_3 + xp_4_2 + xp_4_1 + xp_4_0
 <= 39460.1032155617
 r_2: + xp_131_2 + xp_131_1 + xp_127_1 + xp_126_7 + xp_126_6 + xp_126_5
 + xp_126_2 + xp_120_1 + xp_120_0 + xp_94_6 + xp_94_3 + xp_94_2
 + xp_94_1 + xp_93_0 + xp_90_3 + xp_90_2 + xp_89_2 + xp_89_1 + xp_85_4
 + xp_85_3 + xp_85_2 + xp_85_1 + xp_85_0 + xp_77_2 + xp_77_1 + xp_75_1
 + xp_75_0 + xp_74_1 + xp_71_0 + xp_66_0 + xp_65_1 + xp_65_0 + xp_61_1
 + xp_55_0 + xp_52_0 + xp_48_3 + xp_48_2 + xp_48_1 + xp_48_0 + xp_42_2
 + xp_42_1 + xp_38_2 + xp_38_1 + xp_32_7 + xp_32_2 + xp_32_1 + xp_32_0
 + xp_28_1 + xp_28_0 + xp_24_9 + xp_24_4 + xp_24_3 + xp_24_2 + xp_24_0
 + xp_19_3 + xp_19_2 + xp_19_1 + xp_19_0 + xp_12_2 + xp_12_1 + xp_1_1
 <= 35812.3167155425
 r_3: + xp_128_5 + xp_128_4 + xp_126_7 + xp_126_4 + xp_124_3 + xp_124_2
 + xp_117_2 + xp_117_1 + xp_114_0 + xp_106_2 + xp_105_1 + xp_100_2
 + xp_98_4 + xp_98_3 + xp_95_0 + xp_94_7 + xp_94_6 + xp_94_5 + xp_94_3
 + xp_92_3 + xp_91_2 + xp_85_7 + xp_85_4 + xp_85_3 + xp_84_1 + xp_83_1
 + xp_80_3 + xp_79_2 + xp_76_0 + xp_73_3 + xp_68_3 + xp_60_3 + xp_58_1
 + xp_48_2 + xp_46_3 + xp_46_1 + xp_41_1 + xp_40_3 + xp_34_0 + xp_32_3
 + xp_32_1 + xp_30_2 + xp_26_4 + xp_26_3 + xp_24_9 + xp_24_8 + xp_24_6
 + xp_24_4 + xp_21_2 + xp_15_4 + xp_15_1 + xp_9_3 <= 37565.0394621456
 r_4: + xp_131_5 + xp_119_4 + xp_119_3 + xp_117_0 + xp_112_4 + xp_112_1
 + xp_111_4 + xp_111_1 + xp_104_1 + xp_95_2 + xp_95_1 + xp_91_1
 + xp_91_0 + xp_88_1 + xp_84_0 + xp_82_1 + xp_81_4 + xp_81_3 + xp_79_1
 + xp_79_0 + xp_78_6 + xp_78_4 + xp_59_2 + xp_53_2 + xp_50_3 + xp_49_3
 + xp_49_2 + xp_46_2 + xp_46_0 + xp_45_4 + xp_45_3 + xp_44_3 + xp_44_1
 + xp_43_0 + xp_40_2 + xp_40_1 + xp_40_0 + xp_34_1 + xp_27_1 + xp_19_2
 + xp_18_5 + xp_18_4 + xp_12_5 + xp_4_4 + xp_4_2 + xp_3_2
 <= 36709.1399166871
 r_5: + xp_131_5 + xp_130_0 + xp_119_4 + xp_119_3 + xp_112_4 + xp_112_1
 + xp_111_4 + xp_111_1 + xp_104_1 + xp_99_0 + xp_88_1 + xp_82_1
 + xp_81_4 + xp_81_3 + xp_78_6 + xp_78_4 + xp_77_4 + xp_59_2 + xp_53_2
 + xp_50_3 + xp_49_3 + xp_49_2 + xp_45_4 + xp_45_3 + xp_44_3 + xp_44_1
 + xp_38_4 + xp_27_1 + xp_19_2 + xp_18_5 + xp_18_4 + xp_12_5 + xp_7_0
 + xp_4_4 + xp_4_2 + xp_3_2 + xp_2_0 + xp_0_2 <= 37565.0394621456
 r_6: + xp_128_5 + xp_128_4 + xp_128_3 + xp_126_7 + xp_126_5 + xp_126_4
 + xp_126_3 + xp_119_5 + xp_119_0 + xp_117_2 + xp_117_1 + xp_114_0
 + xp_104_2 + xp_100_2 + xp_100_1 + xp_95_0 + xp_92_3 + xp_92_2
 + xp_91_2 + xp_84_1 + xp_83_1 + xp_83_0 + xp_82_3 + xp_82_2 + xp_81_0
 + xp_80_3 + xp_80_2 + xp_79_2 + xp_73_3 + xp_73_2 + xp_70_0 + xp_68_3
 + xp_68_2 + xp_60_3 + xp_60_2 + xp_58_2 + xp_58_1 + xp_53_0 + xp_48_2
 + xp_48_1 + xp_46_3 + xp_46_1 + xp_45_0 + xp_44_5 + xp_44_2 + xp_40_3
 + xp_34_0 + xp_32_5 + xp_32_3 + xp_32_2 + xp_32_1 + xp_30_2 + xp_30_1
 + xp_21_2 + xp_21_1 + xp_18_1 + xp_15_4 + xp_15_3 + xp_15_2 + xp_15_1
 + xp_9_3 + xp_9_2 <= 39460.1032155617
 r_7: + xp_131_4 + xp_119_2 + xp_119_1 + xp_112_3 + xp_112_2 + xp_111_3
 + xp_111_2 + xp_104_0 + xp_88_0 + xp_82_0 + xp_81_2 + xp_81_1 + xp_78_7
 + xp_78_5 + xp_78_2 + xp_59_1 + xp_53_1 + xp_50_2 + xp_49_1 + xp_45_2
 + xp_45_1 + xp_44_4 + xp_44_0 + xp_27_0 + xp_19_3 + xp_18_3 + xp_18_2
 + xp_18_0 + xp_12_4 + xp_4_3 + xp_4_1 + xp_3_1 <= 36709.1399166871
 r_8: + xp_131_2 + xp_131_1 + xp_127_1 + xp_126_7 + xp_126_6 + xp_126_5
 + xp_126_2 + xp_120_1 + xp_120_0 + xp_118_0 + xp_103_0 + xp_94_6
 + xp_94_3 + xp_94_2 + xp_94_1 + xp_90_3 + xp_90_2 + xp_89_2 + xp_89_1
 + xp_77_2 + xp_77_1 + xp_74_1 + xp_71_0 + xp_61_1 + xp_55_0 + xp_42_2
 + xp_42_1 + xp_38_2 + xp_38_1 + xp_32_7 + xp_32_2 + xp_32_1 + xp_32_0
 + xp_24_9 + xp_24_4 + xp_24_3 + xp_24_2 + xp_24_0 + xp_12_2 + xp_12_1
 + xp_1_1 <= 39460.1032155617
 r_9: + xp_131_5 + xp_131_4 + xp_131_3 + xp_131_0 + xp_127_0 + xp_123_1
 + xp_122_0 + xp_120_3 + xp_120_2 + xp_108_2 + xp_93_1 + xp_85_7
 + xp_85_6 + xp_85_5 + xp_78_7 + xp_78_6 + xp_78_5 + xp_78_3 + xp_77_4
 + xp_77_3 + xp_77_0 + xp_73_3 + xp_73_2 + xp_73_1 + xp_71_1 + xp_67_1
 + xp_57_1 + xp_55_1 + xp_52_1 + xp_46_2 + xp_46_1 + xp_44_4 + xp_44_3
 + xp_44_2 + xp_42_3 + xp_42_0 + xp_33_0 + xp_32_6 + xp_32_5 + xp_32_4
 + xp_32_3 + xp_28_3 + xp_28_2 + xp_24_8 + xp_24_7 + xp_24_6 + xp_24_5
 + xp_24_1 + xp_19_5 + xp_19_4 + xp_6_1 <= 40000
 r_10: + xp_131_5 + xp_131_4 + xp_112_4 + xp_112_3 + xp_112_2 + xp_112_1
 + xp_111_4 + xp_111_3 + xp_111_2 + xp_111_1 + xp_106_0 + xp_99_0
 + xp_98_0 + xp_88_1 + xp_88_0 + xp_85_0 + xp_78_7 + xp_78_6 + xp_78_5
 + xp_78_4 + xp_78_2 + xp_77_4 + xp_59_2 + xp_59_1 + xp_50_3 + xp_50_2
 + xp_49_3 + xp_49_2 + xp_49_1 + xp_38_4 + xp_26_0 + xp_24_7 + xp_24_0
 + xp_19_3 + xp_19_2 + xp_12_5 + xp_12_4 + xp_8_0 + xp_7_0 + xp_4_4
 + xp_4_3 + xp_4_2 + xp_4_1 + xp_3_2 + xp_3_1 + xp_2_0 + xp_0_2
 <= 39460.1032155617
 r_11: + xp_128_5 + xp_128_4 + xp_128_3 + xp_119_5 + xp_119_0 + xp_117_2
 + xp_117_1 + xp_112_5 + xp_112_0 + xp_111_0 + xp_104_2 + xp_100_2
 + xp_100_1 + xp_95_0 + xp_91_2 + xp_84_1 + xp_82_3 + xp_82_2 + xp_81_0
 + xp_80_3 + xp_80_2 + xp_79_2 + xp_78_3 + xp_78_1 + xp_78_0 + xp_73_3
 + xp_73_2 + xp_60_3 + xp_60_2 + xp_59_0 + xp_53_0 + xp_50_1 + xp_50_0
 + xp_49_0 + xp_46_3 + xp_46_1 + xp_45_0 + xp_44_5 + xp_44_2 + xp_40_3
 + xp_34_0 + xp_21_2 + xp_21_1 + xp_18_1 + xp_15_4 + xp_15_3 + xp_15_2
 + xp_15_1 + xp_9_3 + xp_9_2 + xp_4_5 + xp_4_0 + xp_3_0
 <= 36832.0322336943
 r_12: + xp_129_1 + xp_128_5 + xp_128_1 + xp_128_0 + xp_123_0 + xp_119_5
 + xp_119_4 + xp_119_1 + xp_117_1 + xp_117_0 + xp_112_5 + xp_112_2
 + xp_112_1 + xp_111_2 + xp_111_1 + xp_108_1 + xp_101_0 + xp_95_1
 + xp_91_1 + xp_82_3 + xp_82_1 + xp_82_0 + xp_81_4 + xp_81_1 + xp_80_1
 + xp_79_1 + xp_78_7 + xp_78_4 + xp_78_2 + xp_78_0 + xp_73_0 + xp_63_1
 + xp_60_1 + xp_50_3 + xp_50_2 + xp_50_1 + xp_49_2 + xp_46_3 + xp_46_0
 + xp_45_4 + xp_45_1 + xp_44_5 + xp_44_1 + xp_44_0 + xp_40_1 + xp_40_0
 + xp_18_5 + xp_18_2 + xp_18_0 + xp_17_1 + xp_15_2 + xp_15_1 + xp_15_0
 + xp_14_1 + xp_13_1 + xp_13_0 + xp_10_1 + xp_9_0 + xp_4_5 + xp_4_2
 + xp_4_1 <= 36988.7991664496
 r_13: + xp_129_0 + xp_128_2 + xp_126_6 + xp_126_1 + xp_123_1 + xp_120_2
 + xp_120_1 + xp_119_3 + xp_119_2 + xp_112_4 + xp_112_3 + xp_111_4
 + xp_111_3 + xp_109_1 + xp_101_1 + xp_100_0 + xp_96_1 + xp_95_2
 + xp_92_1 + xp_91_0 + xp_90_3 + xp_90_0 + xp_81_3 + xp_81_2 + xp_80_0
 + xp_79_0 + xp_78_6 + xp_78_5 + xp_75_1 + xp_73_1 + xp_68_0 + xp_63_0
 + xp_60_0 + xp_59_2 + xp_59_1 + xp_58_3 + xp_54_1 + xp_53_2 + xp_53_1
 + xp_49_3 + xp_49_1 + xp_48_3 + xp_46_2 + xp_45_3 + xp_45_2 + xp_44_4
 + xp_44_3 + xp_40_2 + xp_34_1 + xp_32_7 + xp_32_6 + xp_31_0 + xp_30_0
 + xp_18_4 + xp_18_3 + xp_17_0 + xp_13_2 + xp_9_1 + xp_4_4 + xp_4_3
 <= 36832.0322336943
 r_14: + xp_131_3 + xp_131_2 + xp_131_1 + xp_131_0 + xp_126_7 + xp_126_5
 + xp_126_4 + xp_126_3 + xp_125_1 + xp_125_0 + xp_124_3 + xp_124_2
 + xp_124_1 + xp_124_0 + xp_115_1 + xp_115_0 + xp_106_2 + xp_106_1
 + xp_99_2 + xp_99_1 + xp_98_4 + xp_98_3 + xp_98_2 + xp_98_1 + xp_94_7
 + xp_94_6 + xp_94_5 + xp_94_4 + xp_94_3 + xp_94_2 + xp_94_1 + xp_94_0
 + xp_92_3 + xp_92_2 + xp_86_1 + xp_86_0 + xp_85_7 + xp_85_6 + xp_85_5
 + xp_85_4 + xp_85_3 + xp_85_2 + xp_85_1 + xp_77_3 + xp_77_2 + xp_77_1
 + xp_77_0 + xp_68_3 + xp_68_2 + xp_65_1 + xp_65_0 + xp_58_2 + xp_58_1
 + xp_56_0 + xp_51_1 + xp_51_0 + xp_48_2 + xp_48_1 + xp_41_1 + xp_41_0
 + xp_38_3 + xp_38_2 + xp_38_1 + xp_38_0 + xp_35_0 + xp_32_5 + xp_32_3
 + xp_32_2 + xp_32_1 + xp_30_2 + xp_30_1 + xp_26_4 + xp_26_3 + xp_26_2
 + xp_26_1 + xp_24_9 + xp_24_8 + xp_24_6 + xp_24_5 + xp_24_4 + xp_24_3
 + xp_24_2 + xp_24_1 + xp_20_0 + xp_19_5 + xp_19_4 + xp_19_1 + xp_19_0
 + xp_12_3 + xp_12_2 + xp_12_1 + xp_12_0 + xp_2_1 + xp_0_1 + xp_0_0
 <= 36709.1399166871
 r_15: + xp_131_1 + xp_131_0 + xp_126_7 + xp_126_6 + xp_126_5 + xp_126_4
 + xp_126_3 + xp_126_1 + xp_125_0 + xp_124_2 + xp_124_0 + xp_120_2
 + xp_120_1 + xp_116_0 + xp_115_0 + xp_109_1 + xp_99_1 + xp_98_3
 + xp_98_1 + xp_96_1 + xp_94_5 + xp_94_3 + xp_94_2 + xp_94_0 + xp_92_3
 + xp_92_2 + xp_92_1 + xp_90_3 + xp_90_0 + xp_89_1 + xp_89_0 + xp_86_0
 + xp_85_5 + xp_85_3 + xp_85_1 + xp_77_1 + xp_77_0 + xp_75_1 + xp_68_3
 + xp_68_2 + xp_68_0 + xp_65_0 + xp_58_3 + xp_58_2 + xp_58_1 + xp_54_1
 + xp_51_0 + xp_48_3 + xp_48_2 + xp_48_1 + xp_42_1 + xp_42_0 + xp_38_2
 + xp_38_0 + xp_36_0 + xp_32_7 + xp_32_6 + xp_32_5 + xp_32_3 + xp_32_2
 + xp_32_1 + xp_28_2 + xp_28_1 + xp_26_4 + xp_26_1 + xp_24_9 + xp_24_8
 + xp_24_2 + xp_24_1 + xp_19_4 + xp_19_1 + xp_12_1 + xp_12_0 + xp_11_0
 + xp_0_0 <= 36988.7991664496
 r_16: + xp_128_0 + xp_123_0 + xp_108_1 + xp_108_0 + xp_78_4 + xp_78_2
 + xp_78_1 + xp_78_0 + xp_73_0 + xp_67_0 + xp_57_0 + xp_46_3 + xp_46_0
 + xp_44_5 + xp_44_1 + xp_44_0 + xp_40_0 + xp_22_0 + xp_18_0 + xp_13_0
 + xp_6_0 <= 36988.7991664496
 r_17: + xp_131_5 + xp_131_4 + xp_131_3 + xp_129_1 + xp_128_5 + xp_128_1
 + xp_126_0 + xp_124_3 + xp_124_1 + xp_120_3 + xp_119_5 + xp_119_4
 + xp_119_1 + xp_112_5 + xp_112_2 + xp_112_1 + xp_111_2 + xp_111_1
 + xp_109_0 + xp_97_0 + xp_95_1 + xp_94_7 + xp_94_4 + xp_93_1 + xp_91_1
 + xp_90_1 + xp_89_3 + xp_85_7 + xp_85_6 + xp_81_4 + xp_81_1 + xp_80_1
 + xp_79_1 + xp_78_7 + xp_77_4 + xp_77_3 + xp_71_1 + xp_68_1 + xp_63_1
 + xp_62_0 + xp_61_0 + xp_60_1 + xp_55_1 + xp_51_1 + xp_49_2 + xp_47_0
 + xp_45_4 + xp_45_1 + xp_42_3 + xp_40_1 + xp_38_4 + xp_38_3 + xp_36_1
 + xp_32_4 + xp_28_3 + xp_24_7 + xp_24_6 + xp_24_5 + xp_22_1 + xp_19_5
 + xp_18_5 + xp_18_2 + xp_17_1 + xp_13_1 + xp_12_5 + xp_12_4 + xp_12_3
 + xp_10_1 + xp_9_0 + xp_6_1 + xp_4_5 + xp_4_2 + xp_4_1 + xp_1_0
 + xp_0_2 + xp_0_1 <= 35812.3167155425
 r_18: + xp_131_5 + xp_131_4 + xp_126_6 + xp_126_2 + xp_126_1 + xp_126_0
 + xp_106_0 + xp_99_0 + xp_98_0 + xp_92_1 + xp_92_0 + xp_85_0 + xp_77_4
 + xp_68_1 + xp_68_0 + xp_58_3 + xp_58_0 + xp_48_3 + xp_48_0 + xp_38_4
 + xp_32_7 + xp_32_6 + xp_32_4 + xp_32_0 + xp_30_0 + xp_26_0 + xp_24_7
 + xp_24_0 + xp_19_3 + xp_19_2 + xp_12_5 + xp_12_4 + xp_5_0 + xp_2_0
 + xp_0_2 <= 36832.0322336943
 r_19: + xp_131_3 + xp_131_2 + xp_128_5 + xp_125_1 + xp_124_3 + xp_124_1
 + xp_119_5 + xp_117_1 + xp_116_1 + xp_115_1 + xp_112_5 + xp_110_0
 + xp_108_1 + xp_106_2 + xp_106_1 + xp_104_2 + xp_99_2 + xp_98_4
 + xp_98_2 + xp_94_7 + xp_94_6 + xp_94_4 + xp_94_1 + xp_89_3 + xp_89_2
 + xp_86_1 + xp_85_7 + xp_85_6 + xp_85_4 + xp_85_2 + xp_84_1 + xp_82_3
 + xp_78_0 + xp_77_3 + xp_77_2 + xp_65_1 + xp_56_0 + xp_51_1 + xp_50_1
 + xp_46_3 + xp_44_5 + xp_42_3 + xp_42_2 + xp_38_3 + xp_38_1 + xp_36_1
 + xp_28_3 + xp_28_0 + xp_26_3 + xp_26_2 + xp_24_6 + xp_24_5 + xp_24_4
 + xp_24_3 + xp_21_2 + xp_21_1 + xp_19_5 + xp_19_0 + xp_15_2 + xp_15_1
 + xp_14_1 + xp_12_3 + xp_12_2 + xp_11_1 + xp_10_1 + xp_4_5 + xp_3_0
 + xp_2_1 + xp_0_1 <= 36832.0322336943
 r_20: + xp_129_0 + xp_128_4 + xp_128_3 + xp_128_2 + xp_123_1 + xp_119_3
 + xp_119_2 + xp_119_0 + xp_117_2 + xp_112_4 + xp_112_3 + xp_112_0
 + xp_111_4 + xp_111_3 + xp_111_0 + xp_108_2 + xp_108_0 + xp_107_0
 + xp_101_1 + xp_95_2 + xp_95_0 + xp_91_2 + xp_91_0 + xp_82_2 + xp_81_3
 + xp_81_2 + xp_81_0 + xp_80_3 + xp_80_2 + xp_80_0 + xp_79_2 + xp_79_0
 + xp_78_6 + xp_78_5 + xp_78_3 + xp_78_1 + xp_73_3 + xp_73_2 + xp_73_1
 + xp_69_0 + xp_64_0 + xp_63_0 + xp_60_3 + xp_60_2 + xp_60_0 + xp_50_0
 + xp_49_3 + xp_49_1 + xp_49_0 + xp_46_2 + xp_46_1 + xp_45_3 + xp_45_2
 + xp_45_0 + xp_44_4 + xp_44_3 + xp_44_2 + xp_40_3 + xp_40_2 + xp_18_4
 + xp_18_3 + xp_18_1 + xp_17_0 + xp_15_4 + xp_15_3 + xp_14_0 + xp_13_2
 + xp_10_0 + xp_9_3 + xp_9_2 + xp_9_1 + xp_4_4 + xp_4_3 + xp_4_0
 <= 35812.3167155425
 r_21: + xp_128_5 + xp_128_4 + xp_126_7 + xp_126_4 + xp_124_3 + xp_124_2
 + xp_113_0 + xp_106_2 + xp_105_1 + xp_100_2 + xp_99_2 + xp_99_1
 + xp_98_4 + xp_98_3 + xp_94_7 + xp_94_6 + xp_94_5 + xp_94_3 + xp_92_3
 + xp_86_1 + xp_86_0 + xp_85_7 + xp_85_4 + xp_85_3 + xp_83_1 + xp_80_3
 + xp_77_3 + xp_77_2 + xp_77_1 + xp_77_0 + xp_73_3 + xp_68_3 + xp_65_1
 + xp_65_0 + xp_60_3 + xp_58_1 + xp_48_2 + xp_41_1 + xp_38_3 + xp_38_2
 + xp_38_1 + xp_38_0 + xp_32_3 + xp_32_1 + xp_30_2 + xp_26_4 + xp_26_3
 + xp_24_9 + xp_24_8 + xp_24_6 + xp_24_4 + xp_21_2 + xp_20_0 + xp_15_4
 + xp_15_1 + xp_9_3 + xp_2_1 + xp_0_1 + xp_0_0 <= 36709.1399166871
 r_22: + xp_128_3 + xp_126_5 + xp_126_3 + xp_124_1 + xp_124_0 + xp_106_1
 + xp_105_0 + xp_100_1 + xp_98_2 + xp_98_1 + xp_94_4 + xp_94_2 + xp_94_1
 + xp_94_0 + xp_92_2 + xp_85_6 + xp_85_5 + xp_85_2 + xp_85_1 + xp_83_0
 + xp_80_2 + xp_73_2 + xp_68_2 + xp_60_2 + xp_58_2 + xp_48_1 + xp_41_0
 + xp_32_5 + xp_32_2 + xp_30_1 + xp_26_2 + xp_26_1 + xp_24_5 + xp_24_3
 + xp_24_2 + xp_24_1 + xp_21_1 + xp_15_3 + xp_15_2 + xp_9_2
 <= 36709.1399166871
 r_23: + xp_128_2 + xp_128_1 + xp_128_0 + xp_119_4 + xp_119_3 + xp_119_2
 + xp_119_1 + xp_117_0 + xp_112_4 + xp_112_3 + xp_112_2 + xp_112_1
 + xp_111_4 + xp_111_3 + xp_111_2 + xp_111_1 + xp_104_1 + xp_104_0
 + xp_100_0 + xp_95_2 + xp_95_1 + xp_91_1 + xp_91_0 + xp_84_0 + xp_82_1
 + xp_82_0 + xp_81_4 + xp_81_3 + xp_81_2 + xp_81_1 + xp_80_1 + xp_80_0
 + xp_79_1 + xp_79_0 + xp_78_7 + xp_78_6 + xp_78_5 + xp_78_4 + xp_78_2
 + xp_73_1 + xp_73_0 + xp_60_1 + xp_60_0 + xp_59_2 + xp_59_1 + xp_53_2
 + xp_53_1 + xp_50_3 + xp_50_2 + xp_49_3 + xp_49_2 + xp_49_1 + xp_46_2
 + xp_46_0 + xp_45_4 + xp_45_3 + xp_45_2 + xp_45_1 + xp_44_4 + xp_44_3
 + xp_44_1 + xp_44_0 + xp_40_2 + xp_40_1 + xp_40_0 + xp_34_1 + xp_21_0
 + xp_18_5 + xp_18_4 + xp_18_3 + xp_18_2 + xp_18_0 + xp_15_0 + xp_9_1
 + xp_9_0 + xp_4_4 + xp_4_3 + xp_4_2 + xp_4_1 + xp_3_2 + xp_3_1
 <= 36709.1399166871
 r_24: + xp_128_0 + xp_126_7 + xp_126_6 + xp_126_5 + xp_126_2 + xp_103_0
 + xp_94_6 + xp_94_3 + xp_94_2 + xp_94_1 + xp_90_3 + xp_90_2 + xp_89_2
 + xp_89_1 + xp_74_1 + xp_61_1 + xp_40_0 + xp_39_0 + xp_38_2 + xp_38_1
 + xp_22_0 + xp_18_0 + xp_13_0 + xp_12_2 + xp_12_1 + xp_1_1 <= 40000
 r_25: + xp_131_5 + xp_131_4 + xp_131_3 + xp_131_0 + xp_127_0 + xp_126_4
 + xp_126_3 + xp_126_1 + xp_126_0 + xp_120_3 + xp_120_2 + xp_94_7
 + xp_94_5 + xp_94_4 + xp_94_0 + xp_93_1 + xp_90_1 + xp_90_0 + xp_89_3
 + xp_89_0 + xp_85_7 + xp_85_6 + xp_85_5 + xp_77_4 + xp_77_3 + xp_77_0
 + xp_74_0 + xp_71_1 + xp_61_0 + xp_55_1 + xp_52_1 + xp_42_3 + xp_42_0
 + xp_38_4 + xp_38_3 + xp_38_0 + xp_32_6 + xp_32_5 + xp_32_4 + xp_32_3
 + xp_28_3 + xp_28_2 + xp_24_8 + xp_24_7 + xp_24_6 + xp_24_5 + xp_24_1
 + xp_19_5 + xp_19_4 + xp_12_5 + xp_12_4 + xp_12_3 + xp_12_0 + xp_1_0
 <= 36988.7991664496
 r_26: + xp_128_5 + xp_128_4 + xp_128_3 + xp_128_2 + xp_128_1 + xp_123_1
 + xp_121_0 + xp_112_5 + xp_112_4 + xp_112_3 + xp_112_2 + xp_112_1
 + xp_112_0 + xp_108_2 + xp_107_0 + xp_81_4 + xp_81_3 + xp_81_2
 + xp_81_1 + xp_81_0 + xp_79_2 + xp_79_1 + xp_79_0 + xp_78_7 + xp_78_6
 + xp_78_5 + xp_78_3 + xp_73_3 + xp_73_2 + xp_73_1 + xp_67_1 + xp_64_0
 + xp_60_3 + xp_60_2 + xp_60_1 + xp_60_0 + xp_57_1 + xp_47_0 + xp_46_2
 + xp_46_1 + xp_44_4 + xp_44_3 + xp_44_2 + xp_40_3 + xp_40_2 + xp_40_1
 + xp_37_0 + xp_29_0 + xp_25_0 + xp_22_1 + xp_18_5 + xp_18_4 + xp_18_3
 + xp_18_2 + xp_18_1 + xp_17_1 + xp_17_0 + xp_13_2 + xp_13_1 + xp_6_1
 + xp_4_5 + xp_4_4 + xp_4_3 + xp_4_2 + xp_4_1 + xp_4_0
 <= 35812.3167155425
 r_27: + xp_131_1 + xp_127_1 + xp_126_7 + xp_126_6 + xp_126_5 + xp_125_0
 + xp_120_1 + xp_117_2 + xp_116_0 + xp_115_0 + xp_108_0 + xp_101_1
 + xp_99_1 + xp_98_3 + xp_98_1 + xp_96_1 + xp_94_3 + xp_94_2 + xp_92_3
 + xp_92_2 + xp_92_1 + xp_90_3 + xp_89_1 + xp_86_0 + xp_85_3 + xp_85_1
 + xp_82_2 + xp_78_1 + xp_77_1 + xp_75_1 + xp_74_1 + xp_72_0 + xp_67_0
 + xp_65_0 + xp_58_3 + xp_58_2 + xp_58_1 + xp_57_0 + xp_54_1 + xp_52_0
 + xp_50_0 + xp_48_3 + xp_48_2 + xp_48_1 + xp_42_1 + xp_38_2 + xp_32_7
 + xp_32_2 + xp_32_1 + xp_28_1 + xp_26_4 + xp_26_1 + xp_24_9 + xp_24_2
 + xp_23_0 + xp_19_1 + xp_15_4 + xp_15_3 + xp_14_0 + xp_12_1 + xp_11_0
 <= 35812.3167155425
 r_28: + xp_131_5 + xp_131_4 + xp_131_3 + xp_131_2 + xp_126_2 + xp_126_0
 + xp_125_1 + xp_124_3 + xp_124_1 + xp_120_3 + xp_120_0 + xp_116_1
 + xp_115_1 + xp_109_0 + xp_99_2 + xp_99_0 + xp_98_4 + xp_98_2 + xp_98_0
 + xp_96_0 + xp_94_7 + xp_94_6 + xp_94_4 + xp_94_1 + xp_92_0 + xp_90_2
 + xp_90_1 + xp_89_3 + xp_89_2 + xp_86_1 + xp_85_7 + xp_85_6 + xp_85_4
 + xp_85_2 + xp_85_0 + xp_77_4 + xp_77_3 + xp_77_2 + xp_75_0 + xp_68_1
 + xp_65_1 + xp_58_0 + xp_54_0 + xp_51_1 + xp_48_0 + xp_42_3 + xp_42_2
 + xp_38_4 + xp_38_3 + xp_38_1 + xp_36_1 + xp_32_4 + xp_32_0 + xp_28_3
 + xp_28_0 + xp_26_3 + xp_26_2 + xp_26_0 + xp_24_7 + xp_24_6 + xp_24_5
 + xp_24_4 + xp_24_3 + xp_24_0 + xp_19_5 + xp_19_3 + xp_19_2 + xp_19_0
 + xp_12_5 + xp_12_4 + xp_12_3 + xp_12_2 + xp_11_1 + xp_0_2 + xp_0_1
 <= 35812.3167155425
 r_29: + xp_129_1 + xp_129_0 + xp_95_2 + xp_95_1 + xp_95_0 + xp_93_1
 + xp_93_0 + xp_87_0 + xp_71_1 + xp_71_0 + xp_62_0 + xp_49_3 + xp_49_2
 + xp_49_1 + xp_49_0 + xp_45_4 + xp_45_3 + xp_45_2 + xp_45_1 + xp_45_0
 + xp_10_1 + xp_10_0 + xp_9_3 + xp_9_2 + xp_9_1 + xp_9_0 + xp_1_1
 + xp_1_0 <= 35812.3167155425
 r_30: + xp_125_1 + xp_125_0 + xp_121_0 + xp_102_0 + xp_99_2 + xp_99_1
 + xp_99_0 + xp_96_1 + xp_96_0 + xp_92_3 + xp_92_2 + xp_92_1 + xp_92_0
 + xp_57_1 + xp_57_0 + xp_37_0 + xp_26_4 + xp_26_3 + xp_26_2 + xp_26_1
 + xp_26_0 + xp_23_0 + xp_11_1 + xp_11_0 <= 35812.3167155425

Bounds
 0 <= xp_0_0 <= 109.844720700003
 0 <= xp_0_1 <= 127.037807418264
 0 <= xp_0_2 <= 1.91034296869572
 0 <= xp_1_0 <= 127.117849721422
 0 <= xp_1_1 <= 57.6464667341334
 0 <= xp_2_0 <= 1.39673819010085
 0 <= xp_2_1 <= 114.998110984969
 0 <= xp_3_0 <= 151.28795719826
 0 <= xp_3_1 <= 32.1025665274353
 0 <= xp_3_2 <= 1.10698505267019
 0 <= xp_4_0 <= 745.663824121015
 0 <= xp_4_1 <= 22.353947618189
 0 <= xp_4_2 <= 3.19342108831271
 0 <= xp_4_3 <= 12.7736843532509
 0 <= xp_4_4 <= 9.58026326493814
 0 <= xp_4_5 <= 4.79013163246907
 0 <= xp_5_0 <= 1096.37944750181
 0 <= xp_6_0 <= 1769.90287803675
 0 <= xp_6_1 <= 43.5222019189361
 0 <= xp_7_0 <= 645.941386482177
 0 <= xp_8_0 <= 1527.87416344078
 0 <= xp_9_0 <= 21.4668120915251
 0 <= xp_9_1 <= 27.600186974818
 0 <= xp_9_2 <= 33.5145127551362
 0 <= xp_9_3 <= 26.9430396658938
 0 <= xp_10_0 <= 55.2740128685412
 0 <= xp_10_1 <= 0.22198398742386
 0 <= xp_11_0 <= 17.3131501729979
 0 <= xp_11_1 <= 24.7090589847638
 0 <= xp_12_0 <= 690.350857331607
 0 <= xp_12_1 <= 234.300897033757
 0 <= xp_12_2 <= 355.635290140525
 0 <= xp_12_3 <= 803.317361258596
 0 <= xp_12_4 <= 4.18394458988853
 0 <= xp_12_5 <= 4.18394458988853
 0 <= xp_13_0 <= 11.220063248961
 0 <= xp_13_1 <= 62.2203507442386
 0 <= xp_13_2 <= 181.561023483189
 0 <= xp_14_0 <= 105.504960426635
 0 <= xp_14_1 <= 117.079344270907
 0 <= xp_15_0 <= 352.05833301625
 0 <= xp_15_1 <= 46.1884110371171
 0 <= xp_15_2 <= 30.7922740247448
 0 <= xp_15_3 <= 54.3996841103824
 0 <= xp_15_4 <= 29.7658648905866
 0 <= xp_16_0 <= 2672.67920435298
 0 <= xp_17_0 <= 221.260405003314
 0 <= xp_17_1 <= 79.3651452729278
 0 <= xp_18_0 <= 7.9931577971607
 0 <= xp_18_1 <= 217.268561941005
 0 <= xp_18_2 <= 47.2322960741314
 0 <= xp_18_3 <= 58.8587074154561
 0 <= xp_18_4 <= 24.7061241003149
 0 <= xp_18_5 <= 7.26650708832791
 0 <= xp_19_0 <= 625.677877014779
 0 <= xp_19_1 <= 424.261026194953
 0 <= xp_19_2 <= 2.14273245553007
 0 <= xp_19_3 <= 2.14273245553007
 0 <= xp_19_4 <= 6.42819736659021
 0 <= xp_19_5 <= 10.7136622776503
 0 <= xp_20_0 <= 129.801934953975
 0 <= xp_21_0 <= 238.919604733631
 0 <= xp_21_1 <= 20.0025715590947
 0 <= xp_21_2 <= 18.8913175835894
 0 <= xp_22_0 <= 44.8917257259634
 0 <= xp_22_1 <= 1202.1006555508
 0 <= xp_23_0 <= 52.6278143261496
 0 <= xp_24_0 <= 16.549546600874
 0 <= xp_24_1 <= 49.648639802622
 0 <= xp_24_2 <= 55.1651553362467
 0 <= xp_24_3 <= 41.373866502185
 0 <= xp_24_4 <= 28.9617065515295
 0 <= xp_24_5 <= 56.5442842196528
 0 <= xp_24_6 <= 70.3355730537146
 0 <= xp_24_7 <= 2.75825776681233
 0 <= xp_24_8 <= 18.6182399259833
 0 <= xp_24_9 <= 4.82695109192158
 0 <= xp_25_0 <= 585.84295719464
 0 <= xp_26_0 <= 2.26906589068055
 0 <= xp_26_1 <= 4.19621774303937
 0 <= xp_26_2 <= 5.12871057482588
 0 <= xp_26_3 <= 3.20155872246708
 0 <= xp_26_4 <= 0.745994265429221
 0 <= xp_27_0 <= 211.38531925508
 0 <= xp_27_1 <= 130.662122905243
 0 <= xp_28_0 <= 393.251837528649
 0 <= xp_28_1 <= 255.410987260877
 0 <= xp_28_2 <= 18.9193323896946
 0 <= xp_28_3 <= 8.10828530986911
 0 <= xp_29_0 <= 2477.976301922
 0 <= xp_30_0 <= 77.9652053907007
 0 <= xp_30_1 <= 82.0490971016422
 0 <= xp_30_2 <= 25.6171389140875
 0 <= xp_31_0 <= 192.968652529216
 0 <= xp_32_0 <= 724.723423576595
 0 <= xp_32_1 <= 59.2541163930548
 0 <= xp_32_2 <= 177.762349179164
 0 <= xp_32_3 <= 136.740268599357
 0 <= xp_32_4 <= 856.90568322264
 0 <= xp_32_5 <= 282.596555105339
 0 <= xp_32_6 <= 22.7900447665595
 0 <= xp_32_7 <= 18.2320358132476
 0 <= xp_33_0 <= 8159.44568197067
 0 <= xp_34_0 <= 347.562890463239
 0 <= xp_34_1 <= 169.643791773723
 0 <= xp_35_0 <= 264.273004258811
 0 <= xp_36_0 <= 167.910075487329
 0 <= xp_36_1 <= 154.993915834458
 0 <= xp_37_0 <= 369.395229072519
 0 <= xp_38_0 <= 167.455702013072
 0 <= xp_38_1 <= 11.5252912316688
 0 <= xp_38_2 <= 8.13549969294271
 0 <= xp_38_3 <= 149.15082770395
 0 <= xp_38_4 <= 2.7118332309809
 0 <= xp_39_0 <= 1592.97523667565
 0 <= xp_40_0 <= 25.7916311349711
 0 <= xp_40_1 <= 168.505323415145
 0 <= xp_40_2 <= 269.952405879364
 0 <= xp_40_3 <= 395.471677402893
 0 <= xp_41_0 <= 56.312961963527
 0 <= xp_41_1 <= 24.5964661449888
 0 <= xp_42_0 <= 169.22223564376
 0 <= xp_42_1 <= 64.3780244296912
 0 <= xp_42_2 <= 34.9480704046895
 0 <= xp_42_3 <= 191.294701162511
 0 <= xp_43_0 <= 498.196635237016
 0 <= xp_44_0 <= 196.868313539056
 0 <= xp_44_1 <= 72.4326813964447
 0 <= xp_44_2 <= 139.293618070086
 0 <= xp_44_3 <= 17.6438582888776
 0 <= xp_44_4 <= 21.3583547707465
 0 <= xp_44_5 <= 16.7152341684103
 0 <= xp_45_0 <= 27.9219570335117
 0 <= xp_45_1 <= 4.82601726505141
 0 <= xp_45_2 <= 7.49756253677629
 0 <= xp_45_3 <= 1.80975647439428
 0 <= xp_45_4 <= 1.03414655679673
 0 <= xp_46_0 <= 1001.36496473084
 0 <= xp_46_1 <= 455.165893059475
 0 <= xp_46_2 <= 146.303322769116
 0 <= xp_46_3 <= 22.7582946529737
 0 <= xp_47_0 <= 889.937007274386
 0 <= xp_48_0 <= 2054.08974030198
 0 <= xp_48_1 <= 694.50598669236
 0 <= xp_48_2 <= 135.36981096546
 0 <= xp_48_3 <= 58.8564395501999
 0 <= xp_49_0 <= 87.218495847241
 0 <= xp_49_1 <= 1.42688745762356
 0 <= xp_49_2 <= 0.35672186440589
 0 <= xp_49_3 <= 0.178360932202945
 0 <= xp_50_0 <= 255.717282474294
 0 <= xp_50_1 <= 382.781770660276
 0 <= xp_50_2 <= 125.47618208366
 0 <= xp_50_3 <= 30.1778159441713
 0 <= xp_51_0 <= 505.786246422425
 0 <= xp_51_1 <= 212.660126336703
 0 <= xp_52_0 <= 329.978396882536
 0 <= xp_52_1 <= 340.709401659204
 0 <= xp_53_0 <= 104.612088534911
 0 <= xp_53_1 <= 61.1519194009224
 0 <= xp_53_2 <= 26.5376254004003
 0 <= xp_54_0 <= 2124.19305727269
 0 <= xp_54_1 <= 1615.58345201022
 0 <= xp_55_0 <= 261.607462159826
 0 <= xp_55_1 <= 938.426767931118
 0 <= xp_56_0 <= 96.9845906593426
 0 <= xp_57_0 <= 41.3114335057221
 0 <= xp_57_1 <= 167.33217005853
 0 <= xp_58_0 <= 2660.82280479389
 0 <= xp_58_1 <= 580.04095744642
 0 <= xp_58_2 <= 929.906931779181
 0 <= xp_58_3 <= 432.728968253678
 0 <= xp_59_0 <= 10497.5409887212
 0 <= xp_59_1 <= 215.555256441915
 0 <= xp_59_2 <= 64.6665769325746
 0 <= xp_60_0 <= 516.144787681733
 0 <= xp_60_1 <= 156.490706903505
 0 <= xp_60_2 <= 10.9818039932284
 0 <= xp_60_3 <= 2.74545099830711
 0 <= xp_61_0 <= 2224.98899560073
 0 <= xp_61_1 <= 225.439413651175
 0 <= xp_62_0 <= 132.870223241684
 0 <= xp_63_0 <= 103.306198358895
 0 <= xp_63_1 <= 30.164342156473
 0 <= xp_64_0 <= 1006.86547180383
 0 <= xp_65_0 <= 332.178226180984
 0 <= xp_65_1 <= 196.76799385243
 0 <= xp_66_0 <= 1701.09904785777
 0 <= xp_67_0 <= 77.8398057824207
 0 <= xp_67_1 <= 331.843382546109
 0 <= xp_68_0 <= 408.768304803437
 0 <= xp_68_1 <= 566.90494826754
 0 <= xp_68_2 <= 334.175548452445
 0 <= xp_68_3 <= 182.006325496421
 0 <= xp_69_0 <= 1740.18637256644
 0 <= xp_70_0 <= 639.604704148848
 0 <= xp_71_0 <= 15.7896783362308
 0 <= xp_71_1 <= 55.9815868284543
 0 <= xp_72_0 <= 606.587254096337
 0 <= xp_73_0 <= 792.563944637049
 0 <= xp_73_1 <= 127.109311875753
 0 <= xp_73_2 <= 11.2155275184488
 0 <= xp_73_3 <= 3.73850917281625
 0 <= xp_74_0 <= 932.425196040362
 0 <= xp_74_1 <= 32.8182781215033
 0 <= xp_75_0 <= 1207.47843109229
 0 <= xp_75_1 <= 578.732265789793
 0 <= xp_76_0 <= 1743.78827620851
 0 <= xp_77_0 <= 298.95640144773
 0 <= xp_77_1 <= 97.3346423318186
 0 <= xp_77_2 <= 3.47623722613638
 0 <= xp_77_3 <= 178.446844275001
 0 <= xp_77_4 <= 1.15874574204546
 0 <= xp_78_0 <= 510.232462958998
 0 <= xp_78_1 <= 907.07993414933
 0 <= xp_78_2 <= 12358.9641027846
 0 <= xp_78_3 <= 3458.24224894432
 0 <= xp_78_4 <= 8050.3344155753
 0 <= xp_78_5 <= 1190.542413571
 0 <= xp_78_6 <= 1814.15986829866
 0 <= xp_78_7 <= 56.6924958843331
 0 <= xp_79_0 <= 179.131205966999
 0 <= xp_79_1 <= 135.967059950854
 0 <= xp_79_2 <= 764.005384485757
 0 <= xp_80_0 <= 38.8258531850001
 0 <= xp_80_1 <= 29.2335835745883
 0 <= xp_80_2 <= 95.9226961041177
 0 <= xp_80_3 <= 64.4052388127648
 0 <= xp_81_0 <= 203.490213279285
 0 <= xp_81_1 <= 21.6703863492227
 0 <= xp_81_2 <= 26.4273004258814
 0 <= xp_81_3 <= 6.87109811072916
 0 <= xp_81_4 <= 5.81400609369391
 0 <= xp_82_0 <= 56.1080536674436
 0 <= xp_82_1 <= 15.5855704631788
 0 <= xp_82_2 <= 86.3885905673337
 0 <= xp_82_3 <= 64.5687919188835
 0 <= xp_83_0 <= 345.032486452751
 0 <= xp_83_1 <= 165.370600015815
 0 <= xp_84_0 <= 293.924808867402
 0 <= xp_84_1 <= 607.685034284136
 0 <= xp_85_0 <= 19.0448654018135
 0 <= xp_85_1 <= 221.914083812435
 0 <= xp_85_2 <= 52.9944080746115
 0 <= xp_85_3 <= 21.5289782803109
 0 <= xp_85_4 <= 80.319649738083
 0 <= xp_85_5 <= 8.28037626165804
 0 <= xp_85_6 <= 1.65607525233161
 0 <= xp_85_7 <= 8.28037626165804
 0 <= xp_86_0 <= 111.162750625333
 0 <= xp_86_1 <= 62.5290472267495
 0 <= xp_87_0 <= 143.142318813583
 0 <= xp_88_0 <= 242.125165571256
 0 <= xp_88_1 <= 188.702531174751
 0 <= xp_89_0 <= 1516.58259573433
 0 <= xp_89_1 <= 63.0034312767974
 0 <= xp_89_2 <= 9.00049018239962
 0 <= xp_89_3 <= 661.536028406374
 0 <= xp_90_0 <= 5409.49617282231
 0 <= xp_90_1 <= 9543.58267888164
 0 <= xp_90_2 <= 4705.82187391859
 0 <= xp_90_3 <= 2330.92111511855
 0 <= xp_91_0 <= 413.608596279219
 0 <= xp_91_1 <= 369.490346009435
 0 <= xp_91_2 <= 1974.2916995728
 0 <= xp_92_0 <= 29.6828877029798
 0 <= xp_92_1 <= 15.7224428015783
 0 <= xp_92_2 <= 21.686128002177
 0 <= xp_92_3 <= 0.677691500068033
 0 <= xp_93_0 <= 105.498156830866
 0 <= xp_93_1 <= 26.7050472178384
 0 <= xp_94_0 <= 65.8313258473567
 0 <= xp_94_1 <= 18.7403044382987
 0 <= xp_94_2 <= 86.0131921655247
 0 <= xp_94_3 <= 12.4935362921991
 0 <= xp_94_4 <= 12.4935362921991
 0 <= xp_94_5 <= 0.480520626623043
 0 <= xp_94_6 <= 31.2338407304978
 0 <= xp_94_7 <= 12.9740569188222
 0 <= xp_95_0 <= 44.6353235481817
 0 <= xp_95_1 <= 7.70860740943529
 0 <= xp_95_2 <= 9.82225782815142
 0 <= xp_96_0 <= 50.7759022387587
 0 <= xp_96_1 <= 66.219264209994
 0 <= xp_97_0 <= 534.682585093042
 0 <= xp_98_0 <= 8.12055846301994
 0 <= xp_98_1 <= 84.1057840812783
 0 <= xp_98_2 <= 19.4313363222263
 0 <= xp_98_3 <= 6.09041884726496
 0 <= xp_98_4 <= 27.2618748401384
 0 <= xp_99_0 <= 0.365393113914635
 0 <= xp_99_1 <= 10.7957056383869
 0 <= xp_99_2 <= 5.4476791529091
 0 <= xp_100_0 <= 152.040488251779
 0 <= xp_100_1 <= 242.856618818279
 0 <= xp_100_2 <= 115.305873640611
 0 <= xp_101_0 <= 245.356339945893
 0 <= xp_101_1 <= 8.11095338664103
 0 <= xp_102_0 <= 76.0401879997592
 0 <= xp_103_0 <= 1460.50522494978
 0 <= xp_104_0 <= 38.535566432215
 0 <= xp_104_1 <= 5.88737820492174
 0 <= xp_104_2 <= 89.3811054747204
 0 <= xp_105_0 <= 1017.77790580099
 0 <= xp_105_1 <= 452.999414720675
 0 <= xp_106_0 <= 4.20222091577619
 0 <= xp_106_1 <= 30.0879017569572
 0 <= xp_106_2 <= 7.73208648502819
 0 <= xp_107_0 <= 456.241127998553
 0 <= xp_108_0 <= 103.358626067463
 0 <= xp_108_1 <= 149.870007797821
 0 <= xp_108_2 <= 608.093250030242
 0 <= xp_109_0 <= 343.228066131897
 0 <= xp_109_1 <= 637.423551387812
 0 <= xp_110_0 <= 135.13808849782
 0 <= xp_111_0 <= 2628.91100575565
 0 <= xp_111_1 <= 89.0150453416134
 0 <= xp_111_2 <= 124.621063478259
 0 <= xp_111_3 <= 77.1463726293983
 0 <= xp_111_4 <= 47.4746908488605
 0 <= xp_112_0 <= 4217.09117485686
 0 <= xp_112_1 <= 142.469296447865
 0 <= xp_112_2 <= 132.971343351341
 0 <= xp_112_3 <= 113.975437158292
 0 <= xp_112_4 <= 85.4815778687193
 0 <= xp_112_5 <= 56.9877185791462
 0 <= xp_113_0 <= 431.561417858286
 0 <= xp_114_0 <= 2432.48559296073
 0 <= xp_115_0 <= 150.159360723736
 0 <= xp_115_1 <= 73.959088117661
 0 <= xp_116_0 <= 108.552704523201
 0 <= xp_116_1 <= 53.4662574517259
 0 <= xp_117_0 <= 843.748596237265
 0 <= xp_117_1 <= 603.240818805145
 0 <= xp_117_2 <= 524.385809811008
 0 <= xp_118_0 <= 3200.35808791973
 0 <= xp_119_0 <= 47.1382463679212
 0 <= xp_119_1 <= 6.62483462468082
 0 <= xp_119_2 <= 8.40844394671027
 0 <= xp_119_3 <= 0.254801331718493
 0 <= xp_119_4 <= 0.891804661014725
 0 <= xp_119_5 <= 0.382201997577739
 0 <= xp_120_0 <= 704.329578558897
 0 <= xp_120_1 <= 986.061409982453
 0 <= xp_120_2 <= 277.329771557566
 0 <= xp_120_3 <= 233.309172897634
 0 <= xp_121_0 <= 76.640505273443
 0 <= xp_122_0 <= 2307.68630195412
 0 <= xp_123_0 <= 351.33968653773
 0 <= xp_123_1 <= 169.935812776411
 0 <= xp_124_0 <= 93.0227634607163
 0 <= xp_124_1 <= 34.0804118384607
 0 <= xp_124_2 <= 3.63151929426221
 0 <= xp_124_3 <= 8.93912441664543
 0 <= xp_125_0 <= 18.5464686608186
 0 <= xp_125_1 <= 9.13482784786586
 0 <= xp_126_0 <= 2935.08282062153
 0 <= xp_126_1 <= 2368.66332892263
 0 <= xp_126_2 <= 5818.67296017953
 0 <= xp_126_3 <= 3604.48767444749
 0 <= xp_126_4 <= 1029.85362127071
 0 <= xp_126_5 <= 5355.23883060771
 0 <= xp_126_6 <= 3810.45839870163
 0 <= xp_126_7 <= 823.882897016568
 0 <= xp_127_0 <= 353.446266553002
 0 <= xp_127_1 <= 231.729671448657
 0 <= xp_128_0 <= 14.0086036871347
 0 <= xp_128_1 <= 61.802663325594
 0 <= xp_128_2 <= 65.0988053696257
 0 <= xp_128_3 <= 149.150427492434
 0 <= xp_128_4 <= 120.309184607157
 0 <= xp_128_5 <= 1.64807102201584
 0 <= xp_129_0 <= 36.4746105297442
 0 <= xp_129_1 <= 13.2183193472915
 0 <= xp_130_0 <= 409.483082570632
 0 <= xp_131_0 <= 172.910985184779
 0 <= xp_131_1 <= 157.333418951916
 0 <= xp_131_2 <= 154.217905705344
 0 <= xp_131_3 <= 291.300488554538
 0 <= xp_131_4 <= 1.5577566232863
 0 <= xp_131_5 <= 1.5577566232863

End
